NAME: tsp20-10
TYPE: TSP
DIMENSION: 20
EDGE_WEIGHT_TYPE: EUC_2D
NODE_COORD_SECTION
0 33 47
1 86 42
2 10 79
3 47 17
4 100 70
5 95 16
6 40 51
7 75 1
8 12 25
9 91 50
10 43 58
11 2 36
12 39 24
13 62 62
14 21 96
15 67 25
16 8 33
17 60 90
18 60 65
19 13 46
EOF